NAME : P-n65-k10.522502.tour
COMMENT : Length = 522502
COMMENT : Found by LKH [Keld Helsgaun] Sun Dec 17 22:38:02 2017
TYPE : TOUR
DIMENSION : 74
TOUR_SECTION
1
13
59
11
39
12
69
7
17
64
24
57
50
25
72
3
63
23
29
22
62
66
52
4
45
33
51
19
26
56
71
34
2
44
42
43
65
68
5
53
28
46
30
6
73
27
8
36
54
15
60
70
18
41
10
40
32
67
35
47
9
20
55
14
58
16
74
31
49
48
37
38
21
61
-1
EOF
